c This is a CNF SAT formula in the DIMACS CNF format,
c produced with the bc2cnf translator by Tommi Junttila;
c see http://users.ics.aalto.fi/tjunttil/circuits/index.html
c S7 <-> 1
c C6 <-> 2
c G26 <-> 4
c G16 <-> 6
c P26 <-> 8
c P16 <-> 9
c G14 <-> 10
c P14 <-> 12
c C2 <-> 13
c G12 <-> 15
c P12 <-> 17
c C0 <-> 18
c P07 <-> 20
c A7 <-> 21
c P06 <-> 22
c G06 <-> 23
c A6 <-> 24
c P05 <-> 25
c G05 <-> 26
c A5 <-> 27
c P04 <-> 28
c G04 <-> 29
c A4 <-> 30
c P03 <-> 31
c G03 <-> 32
c A3 <-> 33
c P02 <-> 34
c G02 <-> 35
c A2 <-> 36
c P01 <-> 37
c G01 <-> 38
c A1 <-> 39
c P00 <-> 40
c G00 <-> 41
c A0 <-> 42
c FB7 <-> 43
c B7 <-> 44
c FB6 <-> 45
c B6 <-> 46
c FB5 <-> 47
c B5 <-> 48
c FB4 <-> 49
c B4 <-> 50
c FB3 <-> 51
c B3 <-> 52
c FB2 <-> 53
c B2 <-> 54
c FB1 <-> 55
c B1 <-> 56
c FB0 <-> 57
c B0 <-> 58
c ALUFN0 <-> 59
p cnf 59 144
1 20 -2 0
1 -20 2 0
-1 20 2 0
-1 -20 -2 0
1 0
2 -3 0
2 -4 0
-2 4 3 0
-3 8 0
-3 13 0
3 -13 -8 0
4 -5 0
4 -6 0
-4 6 5 0
-5 9 0
-5 10 0
5 -10 -9 0
6 -7 0
6 -23 0
-6 23 7 0
-7 22 0
-7 26 0
7 -26 -22 0
-8 9 0
-8 12 0
8 -12 -9 0
-9 22 0
-9 25 0
9 -25 -22 0
10 -11 0
10 -29 0
-10 29 11 0
-11 28 0
-11 32 0
11 -32 -28 0
-12 28 0
-12 31 0
12 -31 -28 0
13 -14 0
13 -15 0
-13 15 14 0
-14 17 0
-14 18 0
14 -18 -17 0
15 -16 0
15 -35 0
-15 35 16 0
-16 34 0
-16 38 0
16 -38 -34 0
-17 34 0
-17 37 0
17 -37 -34 0
18 -19 0
18 -41 0
-18 41 19 0
-19 40 0
-19 59 0
19 -59 -40 0
20 43 -21 0
20 -43 21 0
-20 43 21 0
-20 -43 -21 0
22 45 -24 0
22 -45 24 0
-22 45 24 0
-22 -45 -24 0
-23 24 0
-23 45 0
23 -45 -24 0
25 47 -27 0
25 -47 27 0
-25 47 27 0
-25 -47 -27 0
-26 27 0
-26 47 0
26 -47 -27 0
28 49 -30 0
28 -49 30 0
-28 49 30 0
-28 -49 -30 0
-29 30 0
-29 49 0
29 -49 -30 0
31 51 -33 0
31 -51 33 0
-31 51 33 0
-31 -51 -33 0
-32 33 0
-32 51 0
32 -51 -33 0
34 53 -36 0
34 -53 36 0
-34 53 36 0
-34 -53 -36 0
-35 36 0
-35 53 0
35 -53 -36 0
37 55 -39 0
37 -55 39 0
-37 55 39 0
-37 -55 -39 0
-38 39 0
-38 55 0
38 -55 -39 0
40 57 -42 0
40 -57 42 0
-40 57 42 0
-40 -57 -42 0
-41 42 0
-41 57 0
41 -57 -42 0
43 59 -44 0
43 -59 44 0
-43 59 44 0
-43 -59 -44 0
45 59 -46 0
45 -59 46 0
-45 59 46 0
-45 -59 -46 0
47 59 -48 0
47 -59 48 0
-47 59 48 0
-47 -59 -48 0
49 59 -50 0
49 -59 50 0
-49 59 50 0
-49 -59 -50 0
51 59 -52 0
51 -59 52 0
-51 59 52 0
-51 -59 -52 0
53 59 -54 0
53 -59 54 0
-53 59 54 0
-53 -59 -54 0
55 59 -56 0
55 -59 56 0
-55 59 56 0
-55 -59 -56 0
57 59 -58 0
57 -59 58 0
-57 59 58 0
-57 -59 -58 0
